benchmarks_vrp/CMT2/min_c/CMT2_3.vrp
NAME: CMT2_3
TYPE: CVRP
COMMENT: 835.26 - Cluster Nr.3
DIMENSION: 11
CAPACITY: 140
EDGE_WEIGHT_TYPE: EUC_2D
NODE_COORD_TYPE: TWOD_COORDS
NODE_COORD_SECTION: 
2 57 72
3 55 50
5 55 65
8 50 50
9 67 41
6 70 64
4 62 48
10 55 57
11 40 40
1 62 57
7 55 45
DEPOT_SECTION: 
11
-1
DEMAND_SECTION: 
9 16
11 0
1 31
6 24
3 10
8 15
7 16
4 15
2 37
5 37
10 22
EOF
