benchmarks_vrp/CMT2/min_c/CMT2_3.tour
NAME: CMT2_3 solution
TYPE: TOUR
TOUR_SECTION:
11 3 1 6 2 5 -1
11 7 9 4 10 8 -1
-1
EOF